c 3 - XORSAT
p cnf 20 80
-10 -11 -19 0
-10 11 19 0
10 -11 19 0
10 11 -19 0
13 16 5 0
-13 -16 5 0
-13 16 -5 0
13 -16 -5 0
-1 -2 -6 0
-1 2 6 0
1 -2 6 0
1 2 -6 0
7 9 13 0
-7 -9 13 0
-7 9 -13 0
7 -9 -13 0
9 5 18 0
-9 -5 18 0
-9 5 -18 0
9 -5 -18 0
-4 -2 -17 0
-4 2 17 0
4 -2 17 0
4 2 -17 0
4 18 11 0
-4 -18 11 0
-4 18 -11 0
4 -18 -11 0
3 10 1 0
-3 -10 1 0
-3 10 -1 0
3 -10 -1 0
-3 -6 -7 0
-3 6 7 0
3 -6 7 0
3 6 -7 0
-3 -16 -20 0
-3 16 20 0
3 -16 20 0
3 16 -20 0
-2 -10 -15 0
-2 10 15 0
2 -10 15 0
2 10 -15 0
1 8 20 0
-1 -8 20 0
-1 8 -20 0
1 -8 -20 0
6 17 16 0
-6 -17 16 0
-6 17 -16 0
6 -17 -16 0
-11 -12 -17 0
-11 12 17 0
11 -12 17 0
11 12 -17 0
5 7 14 0
-5 -7 14 0
-5 7 -14 0
5 -7 -14 0
-8 -20 -18 0
-8 20 18 0
8 -20 18 0
8 20 -18 0
-4 -13 -19 0
-4 13 19 0
4 -13 19 0
4 13 -19 0
-12 -14 -19 0
-12 14 19 0
12 -14 19 0
12 14 -19 0
8 14 15 0
-8 -14 15 0
-8 14 -15 0
8 -14 -15 0
-9 -12 -15 0
-9 12 15 0
9 -12 15 0
9 12 -15 0
